1783
0
205
3146
192
146
113
340
117
567
176
253
1062
137
203
509
824
97
3912
319
5548
100
156
654
502
4228
1597
257
403
625
729
220
588
66
177
279
182
299
175
1427
477
481
200
579
70
259
234
93
409
375
469
634
221
95
499
527
313
200
144
184
253
1082
239
1105
343
1228
220
98
1766
1096
1197
630
91
437
336
982
388
184
5403
321
242
588
580
790
57
264
349
317
1194
518
491
174
1400
970
159
44
1721
1018
867
25282
